
Gurobi 7.5.2 (linux64, Python) logging started Mon Nov  4 14:33:00 2019

Academic license - for non-commercial use only
Optimize a model with 30 rows, 17 columns and 82 nonzeros
Variable types: 0 continuous, 17 integer (0 binary)
Coefficient statistics:
  Matrix range     [1e+00, 1e+05]
  Objective range  [1e+00, 1e+00]
  Bounds range     [1e+00, 2e+02]
  RHS range        [8e-02, 1e+05]
Found heuristic solution: objective 6.0000000
Presolve removed 16 rows and 6 columns
Presolve time: 0.00s
Presolved: 14 rows, 11 columns, 42 nonzeros
Variable types: 0 continuous, 11 integer (7 binary)

Root relaxation: objective 0.000000e+00, 7 iterations, 0.00 seconds

    Nodes    |    Current Node    |     Objective Bounds      |     Work
 Expl Unexpl |  Obj  Depth IntInf | Incumbent    BestBd   Gap | It/Node Time

     0     0    0.00000    0    7    6.00000    0.00000   100%     -    0s

Cutting planes:
  Implied bound: 4
  MIR: 9

Explored 1 nodes (9 simplex iterations) in 0.01 seconds
Thread count was 8 (of 8 available processors)

Solution count 1: 6 

Optimal solution found (tolerance 1.00e-04)
Best objective 6.000000000000e+00, best bound 6.000000000000e+00, gap 0.0000%
Optimize a model with 13 rows, 8 columns and 33 nonzeros
Variable types: 0 continuous, 8 integer (0 binary)
Coefficient statistics:
  Matrix range     [1e+00, 1e+05]
  Objective range  [1e+00, 1e+00]
  Bounds range     [1e+00, 2e+02]
  RHS range        [8e-01, 1e+05]
Presolve removed 3 rows and 0 columns
Presolve time: 0.00s
Presolved: 10 rows, 8 columns, 30 nonzeros
Variable types: 0 continuous, 8 integer (5 binary)
Found heuristic solution: objective 105.0000000
Found heuristic solution: objective 4.0000000

Root relaxation: objective 0.000000e+00, 3 iterations, 0.00 seconds

    Nodes    |    Current Node    |     Objective Bounds      |     Work
 Expl Unexpl |  Obj  Depth IntInf | Incumbent    BestBd   Gap | It/Node Time

     0     0    0.00000    0    3    4.00000    0.00000   100%     -    0s

Explored 0 nodes (5 simplex iterations) in 0.00 seconds
Thread count was 8 (of 8 available processors)

Solution count 2: 4 105 

Optimal solution found (tolerance 1.00e-04)
Best objective 4.000000000000e+00, best bound 4.000000000000e+00, gap 0.0000%
Optimize a model with 1 rows, 1 columns and 1 nonzeros
Variable types: 0 continuous, 1 integer (0 binary)
Coefficient statistics:
  Matrix range     [1e+00, 1e+00]
  Objective range  [1e+00, 1e+00]
  Bounds range     [1e+02, 1e+02]
  RHS range        [1e+02, 1e+02]
Found heuristic solution: objective 0.0000000

Explored 0 nodes (0 simplex iterations) in 0.00 seconds
Thread count was 1 (of 8 available processors)

Solution count 1: 0 

Optimal solution found (tolerance 1.00e-04)
Best objective 0.000000000000e+00, best bound 0.000000000000e+00, gap 0.0000%
Optimize a model with 7 rows, 5 columns and 15 nonzeros
Variable types: 0 continuous, 5 integer (2 binary)
Coefficient statistics:
  Matrix range     [1e+00, 1e+05]
  Objective range  [1e+00, 1e+00]
  Bounds range     [1e+00, 2e+02]
  RHS range        [1e-04, 1e+05]
Presolve removed 3 rows and 2 columns
Presolve time: 0.00s
Presolved: 4 rows, 3 columns, 8 nonzeros
Variable types: 0 continuous, 3 integer (2 binary)
Found heuristic solution: objective 0.0000000

Explored 0 nodes (0 simplex iterations) in 0.00 seconds
Thread count was 8 (of 8 available processors)

Solution count 1: 0 

Optimal solution found (tolerance 1.00e-04)
Best objective 0.000000000000e+00, best bound 0.000000000000e+00, gap 0.0000%
Optimize a model with 1 rows, 1 columns and 1 nonzeros
Variable types: 0 continuous, 1 integer (0 binary)
Coefficient statistics:
  Matrix range     [1e+00, 1e+00]
  Objective range  [1e+00, 1e+00]
  Bounds range     [2e+02, 2e+02]
  RHS range        [2e+02, 2e+02]
Found heuristic solution: objective 0.0000000

Explored 0 nodes (0 simplex iterations) in 0.00 seconds
Thread count was 1 (of 8 available processors)

Solution count 1: 0 

Optimal solution found (tolerance 1.00e-04)
Best objective 0.000000000000e+00, best bound 0.000000000000e+00, gap 0.0000%

Gurobi 7.5.2 (linux64, Python) logging started Mon Nov  4 14:33:14 2019

Academic license - for non-commercial use only
Optimize a model with 180 rows, 90 columns and 468 nonzeros
Variable types: 0 continuous, 90 integer (66 binary)
Coefficient statistics:
  Matrix range     [1e+00, 1e+05]
  Objective range  [1e+00, 2e+00]
  Bounds range     [1e+00, 2e+02]
  RHS range        [1e-01, 1e+05]
Found heuristic solution: objective 76.0000000
Presolve removed 83 rows and 30 columns
Presolve time: 0.00s
Presolved: 97 rows, 60 columns, 268 nonzeros
Variable types: 0 continuous, 60 integer (37 binary)

Root relaxation: objective 3.700000e+01, 22 iterations, 0.00 seconds

    Nodes    |    Current Node    |     Objective Bounds      |     Work
 Expl Unexpl |  Obj  Depth IntInf | Incumbent    BestBd   Gap | It/Node Time

     0     0   37.00000    0   15   76.00000   37.00000  51.3%     -    0s
H    0     0                      70.0000000   37.00000  47.1%     -    0s
H    0     0                      68.0000000   37.00000  45.6%     -    0s
H    0     0                      65.0000000   37.00000  43.1%     -    0s
H    0     0                      63.0000000   37.00000  41.3%     -    0s
H    0     0                      62.0000000   39.00000  37.1%     -    0s
     0     0   57.00000    0    5   62.00000   57.00000  8.06%     -    0s
     0     0   59.00000    0    3   62.00000   59.00000  4.84%     -    0s
     0     0   59.00000    0    8   62.00000   59.00000  4.84%     -    0s
     0     0   59.00000    0    2   62.00000   59.00000  4.84%     -    0s
     0     0   60.20000    0   13   62.00000   60.20000  2.90%     -    0s
     0     0   61.00000    0    1   62.00000   61.00000  1.61%     -    0s

Cutting planes:
  Gomory: 3
  Implied bound: 5
  MIR: 9

Explored 1 nodes (195 simplex iterations) in 0.03 seconds
Thread count was 8 (of 8 available processors)

Solution count 6: 62 63 65 ... 76

Optimal solution found (tolerance 1.00e-04)
Best objective 6.200000000000e+01, best bound 6.200000000000e+01, gap 0.0000%

Gurobi 7.5.2 (linux64, Python) logging started Mon Nov  4 14:36:48 2019

Academic license - for non-commercial use only
Optimize a model with 25 rows, 15 columns and 65 nonzeros
Variable types: 0 continuous, 15 integer (0 binary)
Coefficient statistics:
  Matrix range     [1e+00, 1e+05]
  Objective range  [1e+00, 1e+00]
  Bounds range     [1e+00, 2e+02]
  RHS range        [8e-01, 1e+05]
Found heuristic solution: objective 12.0000000
Presolve removed 5 rows and 0 columns
Presolve time: 0.00s
Presolved: 20 rows, 15 columns, 60 nonzeros
Variable types: 0 continuous, 15 integer (10 binary)

Root relaxation: objective 0.000000e+00, 10 iterations, 0.00 seconds

    Nodes    |    Current Node    |     Objective Bounds      |     Work
 Expl Unexpl |  Obj  Depth IntInf | Incumbent    BestBd   Gap | It/Node Time

     0     0    0.00000    0   10   12.00000    0.00000   100%     -    0s
H    0     0                      11.0000000    0.00000   100%     -    0s
     0     0   10.00000    0    9   11.00000   10.00000  9.09%     -    0s
     0     0   10.00000    0    9   11.00000   10.00000  9.09%     -    0s
     0     0   10.00000    0    5   11.00000   10.00000  9.09%     -    0s
     0     2   10.00000    0    5   11.00000   10.00000  9.09%     -    0s

Cutting planes:
  Gomory: 1
  Implied bound: 1
  MIR: 1
  Flow cover: 2

Explored 34 nodes (381 simplex iterations) in 0.08 seconds
Thread count was 8 (of 8 available processors)

Solution count 2: 11 12 

Optimal solution found (tolerance 1.00e-04)
Best objective 1.100000000000e+01, best bound 1.100000000000e+01, gap 0.0000%
Optimize a model with 4 rows, 3 columns and 8 nonzeros
Variable types: 0 continuous, 3 integer (0 binary)
Coefficient statistics:
  Matrix range     [1e+00, 1e+05]
  Objective range  [1e+00, 1e+00]
  Bounds range     [1e+00, 2e+02]
  RHS range        [8e-01, 1e+05]
Found heuristic solution: objective 1.0000000
Presolve removed 2 rows and 0 columns
Presolve time: 0.00s
Presolved: 2 rows, 3 columns, 6 nonzeros
Variable types: 0 continuous, 3 integer (1 binary)

Root relaxation: infeasible, 0 iterations, 0.00 seconds

Explored 0 nodes (0 simplex iterations) in 0.00 seconds
Thread count was 8 (of 8 available processors)

Solution count 1: 1 

Optimal solution found (tolerance 1.00e-04)
Best objective 1.000000000000e+00, best bound 1.000000000000e+00, gap 0.0000%
Optimize a model with 1 rows, 1 columns and 1 nonzeros
Variable types: 0 continuous, 1 integer (0 binary)
Coefficient statistics:
  Matrix range     [1e+00, 1e+00]
  Objective range  [1e+00, 1e+00]
  Bounds range     [1e+02, 1e+02]
  RHS range        [1e+02, 1e+02]
Found heuristic solution: objective 0.0000000

Explored 0 nodes (0 simplex iterations) in 0.00 seconds
Thread count was 1 (of 8 available processors)

Solution count 1: 0 

Optimal solution found (tolerance 1.00e-04)
Best objective 0.000000000000e+00, best bound 0.000000000000e+00, gap 0.0000%
Optimize a model with 1 rows, 1 columns and 1 nonzeros
Variable types: 0 continuous, 1 integer (0 binary)
Coefficient statistics:
  Matrix range     [1e+00, 1e+00]
  Objective range  [1e+00, 1e+00]
  Bounds range     [1e+02, 1e+02]
  RHS range        [1e+02, 1e+02]
Found heuristic solution: objective 0.0000000

Explored 0 nodes (0 simplex iterations) in 0.00 seconds
Thread count was 1 (of 8 available processors)

Solution count 1: 0 

Optimal solution found (tolerance 1.00e-04)
Best objective 0.000000000000e+00, best bound 0.000000000000e+00, gap 0.0000%
Optimize a model with 1 rows, 1 columns and 1 nonzeros
Variable types: 0 continuous, 1 integer (0 binary)
Coefficient statistics:
  Matrix range     [1e+00, 1e+00]
  Objective range  [1e+00, 1e+00]
  Bounds range     [1e+02, 1e+02]
  RHS range        [1e+02, 1e+02]
Found heuristic solution: objective 0.0000000

Explored 0 nodes (0 simplex iterations) in 0.00 seconds
Thread count was 1 (of 8 available processors)

Solution count 1: 0 

Optimal solution found (tolerance 1.00e-04)
Best objective 0.000000000000e+00, best bound 0.000000000000e+00, gap 0.0000%

Gurobi 7.5.2 (linux64, Python) logging started Mon Nov  4 14:36:58 2019

Academic license - for non-commercial use only
Optimize a model with 162 rows, 81 columns and 390 nonzeros
Variable types: 0 continuous, 81 integer (49 binary)
Coefficient statistics:
  Matrix range     [1e+00, 1e+05]
  Objective range  [1e+00, 2e+00]
  Bounds range     [1e+00, 2e+02]
  RHS range        [2e-01, 1e+05]
Found heuristic solution: objective 124.0000000
Presolve removed 65 rows and 24 columns
Presolve time: 0.00s
Presolved: 97 rows, 57 columns, 274 nonzeros
Found heuristic solution: objective 122.0000000
Variable types: 0 continuous, 57 integer (40 binary)

Root relaxation: objective 6.600000e+01, 20 iterations, 0.00 seconds

    Nodes    |    Current Node    |     Objective Bounds      |     Work
 Expl Unexpl |  Obj  Depth IntInf | Incumbent    BestBd   Gap | It/Node Time

     0     0   66.00000    0   15  122.00000   66.00000  45.9%     -    0s
H    0     0                     103.0000000   66.00000  35.9%     -    0s
     0     0   97.50255    0   26  103.00000   97.50255  5.34%     -    0s
     0     0   97.50255    0   28  103.00000   97.50255  5.34%     -    0s
     0     0   98.00000    0    5  103.00000   98.00000  4.85%     -    0s
     0     0   98.00000    0    4  103.00000   98.00000  4.85%     -    0s
     0     0  101.00000    0    4  103.00000  101.00000  1.94%     -    0s
     0     0  101.00000    0    9  103.00000  101.00000  1.94%     -    0s
     0     0  101.00000    0    2  103.00000  101.00000  1.94%     -    0s
     0     0  101.00000    0   15  103.00000  101.00000  1.94%     -    0s
     0     0  101.00000    0    5  103.00000  101.00000  1.94%     -    0s
     0     0  101.00000    0    5  103.00000  101.00000  1.94%     -    0s
     0     0  101.00000    0   15  103.00000  101.00000  1.94%     -    0s
     0     0  101.00000    0   26  103.00000  101.00000  1.94%     -    0s
     0     0  101.00000    0   22  103.00000  101.00000  1.94%     -    0s
     0     0  101.00000    0    5  103.00000  101.00000  1.94%     -    0s
     0     0  101.00000    0    5  103.00000  101.00000  1.94%     -    0s
     0     2  101.00000    0    2  103.00000  101.00000  1.94%     -    0s

Cutting planes:
  MIR: 5
  Zero half: 1

Explored 45 nodes (463 simplex iterations) in 0.06 seconds
Thread count was 8 (of 8 available processors)

Solution count 2: 103 122 

Optimal solution found (tolerance 1.00e-04)
Best objective 1.030000000000e+02, best bound 1.030000000000e+02, gap 0.0000%

Gurobi 7.5.2 (linux64, Python) logging started Mon Nov  4 14:38:19 2019

Academic license - for non-commercial use only
Optimize a model with 25 rows, 15 columns and 65 nonzeros
Variable types: 0 continuous, 15 integer (0 binary)
Coefficient statistics:
  Matrix range     [1e+00, 1e+05]
  Objective range  [1e+00, 1e+00]
  Bounds range     [1e+00, 2e+02]
  RHS range        [8e-01, 1e+05]
Found heuristic solution: objective 12.0000000
Presolve removed 5 rows and 0 columns
Presolve time: 0.00s
Presolved: 20 rows, 15 columns, 60 nonzeros
Variable types: 0 continuous, 15 integer (10 binary)

Root relaxation: objective 0.000000e+00, 10 iterations, 0.00 seconds

    Nodes    |    Current Node    |     Objective Bounds      |     Work
 Expl Unexpl |  Obj  Depth IntInf | Incumbent    BestBd   Gap | It/Node Time

     0     0    0.00000    0   10   12.00000    0.00000   100%     -    0s
H    0     0                      11.0000000    0.00000   100%     -    0s
     0     0   10.00000    0    9   11.00000   10.00000  9.09%     -    0s
     0     0   10.00000    0    9   11.00000   10.00000  9.09%     -    0s
     0     0   10.00000    0    5   11.00000   10.00000  9.09%     -    0s
     0     2   10.00000    0    5   11.00000   10.00000  9.09%     -    0s

Cutting planes:
  Gomory: 1
  Implied bound: 1
  MIR: 1
  Flow cover: 2

Explored 34 nodes (381 simplex iterations) in 0.07 seconds
Thread count was 8 (of 8 available processors)

Solution count 2: 11 12 

Optimal solution found (tolerance 1.00e-04)
Best objective 1.100000000000e+01, best bound 1.100000000000e+01, gap 0.0000%
Optimize a model with 4 rows, 3 columns and 8 nonzeros
Variable types: 0 continuous, 3 integer (0 binary)
Coefficient statistics:
  Matrix range     [1e+00, 1e+05]
  Objective range  [1e+00, 1e+00]
  Bounds range     [1e+00, 2e+02]
  RHS range        [8e-01, 1e+05]
Found heuristic solution: objective 1.0000000
Presolve removed 2 rows and 0 columns
Presolve time: 0.00s
Presolved: 2 rows, 3 columns, 6 nonzeros
Variable types: 0 continuous, 3 integer (1 binary)

Root relaxation: infeasible, 0 iterations, 0.00 seconds

Explored 0 nodes (0 simplex iterations) in 0.00 seconds
Thread count was 8 (of 8 available processors)

Solution count 1: 1 

Optimal solution found (tolerance 1.00e-04)
Best objective 1.000000000000e+00, best bound 1.000000000000e+00, gap 0.0000%
Optimize a model with 1 rows, 1 columns and 1 nonzeros
Variable types: 0 continuous, 1 integer (0 binary)
Coefficient statistics:
  Matrix range     [1e+00, 1e+00]
  Objective range  [2e+00, 2e+00]
  Bounds range     [1e+02, 1e+02]
  RHS range        [1e+02, 1e+02]
Found heuristic solution: objective 0.0000000

Explored 0 nodes (0 simplex iterations) in 0.00 seconds
Thread count was 1 (of 8 available processors)

Solution count 1: 0 

Optimal solution found (tolerance 1.00e-04)
Best objective 0.000000000000e+00, best bound 0.000000000000e+00, gap 0.0000%
Optimize a model with 1 rows, 1 columns and 1 nonzeros
Variable types: 0 continuous, 1 integer (0 binary)
Coefficient statistics:
  Matrix range     [1e+00, 1e+00]
  Objective range  [2e+00, 2e+00]
  Bounds range     [1e+02, 1e+02]
  RHS range        [1e+02, 1e+02]
Found heuristic solution: objective 0.0000000

Explored 0 nodes (0 simplex iterations) in 0.00 seconds
Thread count was 1 (of 8 available processors)

Solution count 1: 0 

Optimal solution found (tolerance 1.00e-04)
Best objective 0.000000000000e+00, best bound 0.000000000000e+00, gap 0.0000%
Optimize a model with 1 rows, 1 columns and 1 nonzeros
Variable types: 0 continuous, 1 integer (0 binary)
Coefficient statistics:
  Matrix range     [1e+00, 1e+00]
  Objective range  [2e+00, 2e+00]
  Bounds range     [1e+02, 1e+02]
  RHS range        [1e+02, 1e+02]
Found heuristic solution: objective 0.0000000

Explored 0 nodes (0 simplex iterations) in 0.00 seconds
Thread count was 1 (of 8 available processors)

Solution count 1: 0 

Optimal solution found (tolerance 1.00e-04)
Best objective 0.000000000000e+00, best bound 0.000000000000e+00, gap 0.0000%
